50

99 25 300
96 4 415
95 28 306
95 18 435
92 17 319
91 16 289
90 12 371
86 12 404
86 14 361
86 8 363
85 23 259
80 2 278
77 20 418
77 18 399
76 11 260
76 22 306
71 8 388
70 13 312
70 18 403
69 3 370
68 3 260
64 9 357
64 7 335
61 3 415
60 13 438
60 6 313
56 5 327
55 1 326
53 13 279
52 7 440
50 12 413
48 5 384
44 14 351
41 2 448
40 8 175
38 6 435
38 11 128
37 6 193
35 1 424
21 3 232
19 5 109
14 2 444
12 2 196
9 1 427
6 2 376
6 2 125
6 2 265
4 2 92
3 1 197
2 1 376
